50
8013

99 349
560 736
757 98
92 312
502 749
990 360
105 822
503 93
895 109
551 275
611 145
926 930
857 406
19 165
28 280
677 84
215 71
434 753
439 694
438 811
189 305
877 174
342 612
87 654
572 796
135 870
114 938
423 768
144 237
101 346
723 307
680 859
742 56
283 66
593 583
305 456
532 860
807 879
377 614
89 6
159 989
683 627
711 288
402 511
19 207
374 407
856 507
792 673
123 34
104 632
